(set-info :smt-lib-version 2.7)
(set-logic QF_EIA)
(set-info :source |
Generated by: Florian Frohn
Generator: LoAT
Application: proving lower bounds on the worst-case runtime of transition systems
Target solver: SwInE
Time limit: 1.0
Benchmarks generated by the verification tool LoAT to evaluate the SMT solver
SwInE. We extracted all benchmarks with exponentiation that were generated by
LoAT when analyzing the examples from the category LIA-Lin (linear CHCs with
linear integer arithmetic) of the CHC competitions 2022 and 2023, and when
analyzing the examples from the categories "Termination of Integer Transition
Systems" and "Complexity of Integer Transition Systems" of the Termination and
Complexity Competition 2024. From the entire set, we selected those where
* SwInE v0.1.0 or SwInE-Z3 v0.1.2 failed or needed more than 1 second, or
* SwInE-Z3 v0.1.2 failed without phasing, a technique to prevent SwInE from
  computing with huge constants (described here
  https://arxiv.org/abs/2502.04761)
If several selected benchmarks only differed in lines not containing
exponentiation, we kept only one of them. This benchmark is known to be
satisfiable with the slightly different semantics of exponentiation used by the
versions of SwInE mentioned above.
|)
(set-info :license "https://creativecommons.org/licenses/by/4.0/")
(set-info :category "industrial")
(set-info :status unknown)

(declare-fun i1 () Int)
(declare-fun it1 () Int)
(declare-fun i2 () Int)
(declare-fun it2 () Int)
(declare-fun i3 () Int)
(declare-fun it3 () Int)
(declare-fun it4 () Int)
(declare-fun i4 () Int)
(declare-fun i5 () Int)
(declare-fun it5 () Int)
(declare-fun i6 () Int)
(declare-fun it6 () Int)
(declare-fun it436 () Int)
(declare-fun it13 () Int)
(declare-fun it48 () Int)
(declare-fun it439 () Int)
(declare-fun it440 () Int)
(declare-fun it441 () Int)
(declare-fun it442 () Int)
(declare-fun it443 () Int)
(declare-fun it444 () Int)
(declare-fun it446 () Int)
(declare-fun it495 () Int)
(declare-fun it496 () Int)
(declare-fun it497 () Int)
(declare-fun it498 () Int)
(declare-fun it499 () Int)
(declare-fun it500 () Int)
(declare-fun it447 () Int)
(declare-fun it501 () Int)
(declare-fun it73 () Int)
(assert (= (+ i1 (- 1)) 0))
(assert (= (+ it1 (- 2)) 0))
(assert (= (+ it2 (* i2 (- 1)) (- 1)) 0))
(assert (= (+ it3 (* i3 (- 1))) 0))
(assert (= (+ (* i4 (- 1)) it4) 0))
(assert (= (+ it5 (* i5 (- 1))) 0))
(assert (= (+ it6 (* i6 (- 1))) 0))
(assert (let ((a!1 (> (+ (+ (* it48 (- 2)) it3) (* it13 (- 2)) 1) 0))
      (a!2 (+ (* it48 (+ it436 (- 1)) (- 2))
              (* it48 (- 2))
              (* it13 (+ it436 (- 1)) (- 2))
              it3))
      (a!3 (> (+ (+ (* it48 (- 2)) it3) 1) 0)))
(let ((a!4 (> (+ (+ a!2 (* it13 (- 2))) 2) 0))
      (a!5 (> (+ (+ a!2 (* it13 (- 2))) 1) 0)))
  (and a!1
       (> (+ a!2 2) 0)
       (>= (+ it1 (- 2)) 0)
       (> (+ a!2 1) 0)
       (>= (+ it13 (- 1)) 0)
       (>= (+ (* it1 (- 1)) 2) 0)
       a!3
       (>= (+ it48 (- 1)) 0)
       a!4
       a!5
       (>= (+ it436 (- 1)) 0)))))
(assert (= (+ it439 (* it1 (- 1))) 0))
(assert (= (+ (* it48 it436 (- 2)) it440 (* it2 (- 1)) (* it436 it13 (- 2))) 0))
(assert (= (+ (* it48 it436 2) it441 (* it3 (- 1)) (* it436 it13 2)) 0))
(assert (let ((a!1 (* (** (- 1) (+ (* it48 it436) (* it436 it13)))
              (+ 0 it4)
              (+ 0 (- 1)))))
  (= (+ a!1 (+ 0 it442)) (+ 0 0))))
(assert (let ((a!1 (* (+ 0 it5)
              (** (- 1) (+ (* it48 it436) (* it436 it13)))
              (+ 0 (- 1)))))
  (= (+ (+ 0 it443) a!1) (+ 0 0))))
(assert (let ((a!1 (+ (* (* (** it48 2) (** it436 2)) (+ 0 it3) (+ 0 12))
              (+ 0 (* (* it48 it436) (- 1)))
              (* (** it436 2) (+ 0 it3) (** it13 2) (+ 0 12))
              (* (* (+ 0 it48) (** it436 2))
                 (+ 0 it3)
                 (+ 0 it13)
                 (+ 0 24))
              (+ 0 (* (* it48 it436) it3 (- 6)))
              (* (** it436 2) (** it13 2) (+ 0 6))
              (* (+ 0 it48) (** it436 3) (** it13 2) (+ 0 (- 24)))
              (* (+ 0 it436) (** it3 2) (+ 0 it13) (+ 0 (- 6)))
              (* (** it436 3) (** it13 3) (+ 0 (- 8)))
              (* (+ 0 (* it48 it436)) (** it3 2) (+ 0 (- 6)))
              (* (* (+ 0 it48) (** it436 2)) (+ 0 it13) (+ 0 12))
              (+ 0 (* it444 3))
              (+ 0 (* it6 (- 3)))
              (* (* (** it48 2) (** it436 2)) (+ 0 6))
              (+ 0 (* it436 it3 it13 (- 6)))
              (+ 0 (* it436 it13 (- 1)))
              (* (** it48 3) (** it436 3) (+ 0 (- 8)))
              (* (** it48 2) (** it436 3) (+ 0 it13) (+ 0 (- 24))))))
  (= a!1 (+ 0 0))))
(assert (let ((a!1 (> (+ (+ (* it446 (- 2)) it441) 1) 0))
      (a!2 (> (+ (+ (* it446 (- 2)) it441) 2) 0)))
  (and (>= (+ it446 (- 1)) 0)
       a!1
       (>= (+ it439 (- 2)) 0)
       (>= (+ (* it439 (- 1)) 2) 0)
       a!2)))
(assert (= (+ it495 (* it439 (- 1))) 0))
(assert (= (+ (* it446 (- 2)) (* it440 (- 1)) it496) 0))
(assert (= (+ (* it446 2) (* it441 (- 1)) it497) 0))
(assert (= (+ (* (** (- 1) it446) (+ 0 it442) (+ 0 (- 1))) (+ 0 it498))
   (+ 0 0)))
(assert (= (+ (* (+ 0 it443) (** (- 1) it446) (+ 0 (- 1))) (+ 0 it499))
   (+ 0 0)))
(assert (= (+ (+ 0 (* it446 (- 1)))
      (* (** it446 2) (+ 0 it441) (+ 0 12))
      (+ 0 (* it444 (- 3)))
      (+ 0 (* it446 it441 (- 6)))
      (* (** it446 3) (+ 0 (- 8)))
      (+ 0 (* it500 3))
      (* (** it446 2) (+ 0 6))
      (* (+ 0 it446) (** it441 2) (+ 0 (- 6))))
   (+ 0 0)))
(assert (let ((a!1 (+ (* it447 (+ it73 (- 1)) (- 2)) (* it447 (- 2)) it497)))
(let ((a!2 (+ (+ a!1 (* (+ it73 (- 1)) it501 (- 2))) 1))
      (a!3 (+ a!1 (* it501 (- 2)) (* (+ it73 (- 1)) it501 (- 2))))
      (a!4 (+ (+ a!1 (* (+ it73 (- 1)) it501 (- 2))) 2)))
  (and (>= (+ it495 (- 2)) 0)
       (> a!2 0)
       (>= (+ it501 (- 1)) 0)
       (> (+ (* it447 (- 2)) it497 (* it501 (- 2)) 1) 0)
       (> (+ a!3 1) 0)
       (>= (+ it73 (- 1)) 0)
       (>= (+ (* it495 (- 1)) 2) 0)
       (> a!4 0)
       (> (+ a!3 2) 0)
       (>= (+ it447 (- 1)) 0)))))
(check-sat)
(exit)
